# Components (V)
1 2 3 4 5 6 7 8 9 10 11 12 13 14 15 16 17 18 19 20 21 22 23 24 25 26 27 28 29 30 31 32 33 34 35 36 37 38 39 40 41 42 43 44 45 46 47 48 49 50 51 52 53 54 55 56 57 58 59 60 61 62 63 64 65 66 67 68 69 70 71 72 73 74 75 76 77 78 79 80 81 82 83 84 85 86 87 88 89 90 91 92 93 94 95 96 97 98 99 100 101 102 103 104 105 106 107 108 109 110 111 112 113 114 115 116 117 118 119 120 121 122 123 124 125 126 127 128 129 130 131 132 133 134 135 136 137 138 139 140 141 142 143 144 145 146 147 148 149 150 151 152 153 154 155 156 157 158 159 160 161 162 163 164 165 166 167 168 169 170 171 172 173 174 175 176 177 178 179 180 181 182 183 184 185 186 187 188 189 190 191 192 193 194 195 196 197 198 199 200 201 202 203 204 205 206 207 208 209 210 211 212 213 214 215 216 217

# Precedence arcs (E)
1 153
2 153
3 153
5 63
6 63
9 158
11 24
11 27
11 34
12 30
13 39
14 40
15 33
17 25
17 32
18 36
18 38
19 23
19 26
20 31
20 35
20 37
21 28
22 29
23 153
25 63
26 63
27 63
28 63
30 158
31 52
32 45
32 60
33 42
33 49
33 53
33 54
33 99
34 41
34 51
34 59
35 57
36 43
37 46
37 48
37 56
38 47
38 50
38 58
39 44
39 55
43 63
46 62
47 61
47 65
47 76
49 69
53 66
53 74
54 73
55 71
56 67
57 72
59 68
59 70
60 64
60 75
61 153
62 153
63 78
63 79
63 80
63 81
63 82
63 83
64 158
65 158
67 90
68 88
68 92
68 95
68 96
69 91
70 86
70 98
71 84
71 93
71 94
72 87
72 97
73 85
75 77
76 89
77 153
78 101
78 109
80 111
81 112
81 116
85 102
86 117
87 103
89 115
89 162
90 104
90 105
90 106
92 113
94 100
94 110
94 114
97 107
98 99
98 108
99 153
101 158
103 128
103 129
104 124
104 125
106 120
106 127
109 119
109 131
110 118
111 121
111 130
112 122
115 123
117 126
118 153
121 158
122 141
122 143
123 133
123 138
123 142
123 145
124 151
125 134
125 150
126 132
126 136
126 139
126 152
127 148
127 149
129 137
129 147
130 146
131 135
131 140
131 144
132 153
137 158
138 158
139 168
141 155
141 161
144 154
144 164
145 156
145 159
146 163
147 162
147 166
148 160
149 157
151 167
152 165
153 169
153 170
153 171
153 172
153 173
153 174
153 187
158 175
158 176
158 177
158 178
158 179
158 180
158 186
159 181
162 184
162 185
163 182
163 183
167 188
169 191
169 193
169 201
172 199
172 208
172 209
174 197
178 200
179 206
179 207
181 189
181 194
182 190
183 196
184 192
185 195
187 198
187 202
187 203
188 204
188 205
198 210
200 215
201 213
202 217
205 216
206 212
207 214
209 211

# Target components (T)
96 168 58

# Revenues (r)
1 30
2 26
3 25
4 26
5 25
6 28
7 25
8 22
9 29
10 25
11 20
12 25
13 24
14 25
15 23
16 22
17 27
18 22
19 21
20 28
21 28
22 26
23 24
24 28
25 21
26 20
27 29
28 23
29 29
30 28
31 25
32 26
33 25
34 30
35 25
36 28
37 29
38 25
39 29
40 20
41 25
42 22
43 20
44 29
45 25
46 29
47 26
48 23
49 27
50 28
51 21
52 22
53 21
54 26
55 22
56 21
57 27
58 28
59 25
60 21
61 28
62 29
63 23
64 27
65 27
66 24
67 29
68 23
69 29
70 30
71 21
72 29
73 24
74 20
75 22
76 23
77 30
78 27
79 24
80 25
81 25
82 28
83 27
84 22
85 25
86 20
87 24
88 28
89 29
90 27
91 26
92 29
93 27
94 22
95 30
96 24
97 30
98 20
99 23
100 22
101 30
102 20
103 28
104 23
105 27
106 21
107 23
108 28
109 24
110 25
111 24
112 21
113 21
114 21
115 29
116 27
117 29
118 27
119 30
120 28
121 30
122 29
123 22
124 25
125 23
126 22
127 20
128 25
129 29
130 26
131 27
132 20
133 24
134 26
135 30
136 22
137 26
138 25
139 20
140 28
141 23
142 24
143 20
144 25
145 26
146 30
147 20
148 24
149 26
150 26
151 25
152 27
153 20
154 28
155 25
156 25
157 24
158 22
159 24
160 22
161 25
162 26
163 26
164 22
165 29
166 26
167 22
168 23
169 23
170 28
171 29
172 30
173 25
174 27
175 23
176 25
177 27
178 25
179 27
180 26
181 28
182 22
183 21
184 30
185 26
186 23
187 24
188 21
189 29
190 23
191 25
192 28
193 27
194 27
195 22
196 29
197 22
198 25
199 30
200 30
201 22
202 30
203 30
204 29
205 29
206 28
207 27
208 27
209 23
210 22
211 26
212 28
213 30
214 20
215 21
216 27
217 26

# Costs (c)
1 4
2 2
3 4
4 8
5 5
6 9
7 2
8 6
9 2
10 6
11 6
12 2
13 8
14 10
15 3
16 9
17 8
18 4
19 10
20 8
21 9
22 4
23 1
24 1
25 3
26 3
27 5
28 5
29 8
30 5
31 10
32 9
33 1
34 8
35 1
36 9
37 8
38 1
39 9
40 8
41 8
42 8
43 2
44 4
45 2
46 8
47 2
48 10
49 10
50 2
51 2
52 6
53 3
54 7
55 7
56 2
57 7
58 4
59 1
60 8
61 9
62 9
63 7
64 4
65 4
66 5
67 7
68 4
69 2
70 6
71 7
72 3
73 5
74 1
75 9
76 4
77 2
78 10
79 2
80 4
81 9
82 2
83 4
84 7
85 7
86 6
87 9
88 3
89 7
90 5
91 1
92 8
93 2
94 3
95 6
96 8
97 1
98 9
99 3
100 3
101 6
102 10
103 10
104 9
105 3
106 2
107 6
108 5
109 6
110 3
111 5
112 2
113 1
114 9
115 1
116 10
117 5
118 3
119 5
120 4
121 10
122 3
123 5
124 8
125 2
126 1
127 3
128 9
129 9
130 7
131 1
132 2
133 3
134 7
135 9
136 6
137 8
138 10
139 6
140 5
141 1
142 2
143 7
144 3
145 10
146 1
147 8
148 7
149 4
150 8
151 8
152 2
153 4
154 10
155 10
156 5
157 4
158 6
159 9
160 1
161 2
162 3
163 4
164 6
165 9
166 2
167 1
168 9
169 6
170 10
171 7
172 6
173 4
174 9
175 3
176 2
177 8
178 8
179 3
180 2
181 5
182 3
183 9
184 9
185 3
186 2
187 7
188 8
189 2
190 5
191 4
192 1
193 3
194 8
195 3
196 7
197 4
198 9
199 8
200 3
201 3
202 4
203 4
204 8
205 2
206 10
207 10
208 8
209 10
210 2
211 5
212 6
213 3
214 3
215 3
216 8
217 3

# Durations (p)
1 212
2 173
3 219
4 293
5 211
6 156
7 68
8 197
9 226
10 115
11 52
12 251
13 158
14 22
15 266
16 161
17 149
18 202
19 34
20 54
21 105
22 94
23 29
24 195
25 208
26 270
27 237
28 124
29 279
30 96
31 255
32 159
33 147
34 120
35 131
36 81
37 118
38 26
39 104
40 235
41 158
42 53
43 53
44 89
45 167
46 219
47 146
48 75
49 27
50 144
51 86
52 154
53 228
54 52
55 81
56 55
57 217
58 201
59 66
60 278
61 75
62 151
63 150
64 171
65 180
66 139
67 118
68 56
69 153
70 165
71 92
72 38
73 78
74 66
75 60
76 86
77 85
78 253
79 65
80 25
81 243
82 46
83 118
84 63
85 113
86 131
87 37
88 330
89 217
90 141
91 94
92 101
93 180
94 100
95 252
96 26
97 163
98 82
99 138
100 255
101 95
102 194
103 117
104 124
105 231
106 158
107 51
108 51
109 127
110 46
111 46
112 88
113 188
114 113
115 259
116 55
117 206
118 202
119 195
120 97
121 143
122 104
123 149
124 152
125 138
126 196
127 103
128 200
129 91
130 53
131 190
132 463
133 212
134 75
135 148
136 143
137 33
138 141
139 102
140 67
141 36
142 119
143 72
144 98
145 70
146 28
147 364
148 139
149 228
150 158
151 49
152 205
153 56
154 97
155 255
156 124
157 161
158 25
159 100
160 59
161 182
162 63
163 80
164 44
165 236
166 103
167 31
168 98
169 192
170 33
171 320
172 104
173 22
174 187
175 66
176 116
177 198
178 117
179 66
180 50
181 181
182 230
183 130
184 126
185 159
186 101
187 165
188 66
189 21
190 144
191 64
192 173
193 72
194 167
195 30
196 49
197 91
198 145
199 176
200 268
201 23
202 147
203 296
204 118
205 35
206 176
207 261
208 274
209 232
210 181
211 284
212 119
213 206
214 68
215 180
216 52
217 35

orderrules
1 153 au000 avant au152
2 153 au001 avant au152
3 153 au002 avant au152
5 63 au004 avant au062
6 63 au005 avant au062
9 158 au008 avant au157
11 24 au010 avant au023
11 27 au010 avant au026
11 34 au010 avant au033
12 30 au011 avant au029
13 39 au012 avant au038
14 40 au013 avant au039
15 33 au014 avant au032
17 25 au016 avant au024
17 32 au016 avant au031
18 36 au017 avant au035
18 38 au017 avant au037
19 23 au018 avant au022
19 26 au018 avant au025
20 31 au019 avant au030
20 35 au019 avant au034
20 37 au019 avant au036
21 28 au020 avant au027
22 29 au021 avant au028
23 153 au022 avant au152
25 63 au024 avant au062
26 63 au025 avant au062
27 63 au026 avant au062
28 63 au027 avant au062
30 158 au029 avant au157
31 52 au030 avant au051
32 45 au031 avant au044
32 60 au031 avant au059
33 42 au032 avant au041
33 49 au032 avant au048
33 53 au032 avant au052
33 54 au032 avant au053
33 99 au032 avant au098
34 41 au033 avant au040
34 51 au033 avant au050
34 59 au033 avant au058
35 57 au034 avant au056
36 43 au035 avant au042
37 46 au036 avant au045
37 48 au036 avant au047
37 56 au036 avant au055
38 47 au037 avant au046
38 50 au037 avant au049
38 58 au037 avant au057
39 44 au038 avant au043
39 55 au038 avant au054
43 63 au042 avant au062
46 62 au045 avant au061
47 61 au046 avant au060
47 65 au046 avant au064
47 76 au046 avant au075
49 69 au048 avant au068
53 66 au052 avant au065
53 74 au052 avant au073
54 73 au053 avant au072
55 71 au054 avant au070
56 67 au055 avant au066
57 72 au056 avant au071
59 68 au058 avant au067
59 70 au058 avant au069
60 64 au059 avant au063
60 75 au059 avant au074
61 153 au060 avant au152
62 153 au061 avant au152
63 78 au062 avant au077
63 79 au062 avant au078
63 80 au062 avant au079
63 81 au062 avant au080
63 82 au062 avant au081
63 83 au062 avant au082
64 158 au063 avant au157
65 158 au064 avant au157
67 90 au066 avant au089
68 88 au067 avant au087
68 92 au067 avant au091
68 95 au067 avant au094
68 96 au067 avant au095
69 91 au068 avant au090
70 86 au069 avant au085
70 98 au069 avant au097
71 84 au070 avant au083
71 93 au070 avant au092
71 94 au070 avant au093
72 87 au071 avant au086
72 97 au071 avant au096
73 85 au072 avant au084
75 77 au074 avant au076
76 89 au075 avant au088
77 153 au076 avant au152
78 101 au077 avant au100
78 109 au077 avant au108
80 111 au079 avant au110
81 112 au080 avant au111
81 116 au080 avant au115
85 102 au084 avant au101
86 117 au085 avant au116
87 103 au086 avant au102
89 115 au088 avant au114
89 162 au088 avant au161
90 104 au089 avant au103
90 105 au089 avant au104
90 106 au089 avant au105
92 113 au091 avant au112
94 100 au093 avant au099
94 110 au093 avant au109
94 114 au093 avant au113
97 107 au096 avant au106
98 99 au097 avant au098
98 108 au097 avant au107
99 153 au098 avant au152
101 158 au100 avant au157
103 128 au102 avant au127
103 129 au102 avant au128
104 124 au103 avant au123
104 125 au103 avant au124
106 120 au105 avant au119
106 127 au105 avant au126
109 119 au108 avant au118
109 131 au108 avant au130
110 118 au109 avant au117
111 121 au110 avant au120
111 130 au110 avant au129
112 122 au111 avant au121
115 123 au114 avant au122
117 126 au116 avant au125
118 153 au117 avant au152
121 158 au120 avant au157
122 141 au121 avant au140
122 143 au121 avant au142
123 133 au122 avant au132
123 138 au122 avant au137
123 142 au122 avant au141
123 145 au122 avant au144
124 151 au123 avant au150
125 134 au124 avant au133
125 150 au124 avant au149
126 132 au125 avant au131
126 136 au125 avant au135
126 139 au125 avant au138
126 152 au125 avant au151
127 148 au126 avant au147
127 149 au126 avant au148
129 137 au128 avant au136
129 147 au128 avant au146
130 146 au129 avant au145
131 135 au130 avant au134
131 140 au130 avant au139
131 144 au130 avant au143
132 153 au131 avant au152
137 158 au136 avant au157
138 158 au137 avant au157
139 168 au138 avant au167
141 155 au140 avant au154
141 161 au140 avant au160
144 154 au143 avant au153
144 164 au143 avant au163
145 156 au144 avant au155
145 159 au144 avant au158
146 163 au145 avant au162
147 162 au146 avant au161
147 166 au146 avant au165
148 160 au147 avant au159
149 157 au148 avant au156
151 167 au150 avant au166
152 165 au151 avant au164
153 169 au152 avant au168
153 170 au152 avant au169
153 171 au152 avant au170
153 172 au152 avant au171
153 173 au152 avant au172
153 174 au152 avant au173
153 187 au152 avant au186
158 175 au157 avant au174
158 176 au157 avant au175
158 177 au157 avant au176
158 178 au157 avant au177
158 179 au157 avant au178
158 180 au157 avant au179
158 186 au157 avant au185
159 181 au158 avant au180
162 184 au161 avant au183
162 185 au161 avant au184
163 182 au162 avant au181
163 183 au162 avant au182
167 188 au166 avant au187
169 191 au168 avant au190
169 193 au168 avant au192
169 201 au168 avant au200
172 199 au171 avant au198
172 208 au171 avant au207
172 209 au171 avant au208
174 197 au173 avant au196
178 200 au177 avant au199
179 206 au178 avant au205
179 207 au178 avant au206
181 189 au180 avant au188
181 194 au180 avant au193
182 190 au181 avant au189
183 196 au182 avant au195
184 192 au183 avant au191
185 195 au184 avant au194
187 198 au186 avant au197
187 202 au186 avant au201
187 203 au186 avant au202
188 204 au187 avant au203
188 205 au187 avant au204
198 210 au197 avant au209
200 215 au199 avant au214
201 213 au200 avant au212
202 217 au201 avant au216
205 216 au204 avant au215
206 212 au205 avant au211
207 214 au206 avant au213
209 211 au208 avant au210
